#       time        depth stress_xx stress_yy stress_xy
           0        10000            0            0            0
           0        30000            0            0            0
           0        50000            0            0            0
           0        70000            0            0            0
           0        90000            0            0            0
        1000        10000        1e+06       -1e+06     0.337941
        1000        30000        1e+06       -1e+06     0.825115
        1000        50000        1e+06       -1e+06      1.09079
        1000        70000        1e+06       -1e+06     0.811335
        1000        90000        1e+06       -1e+06    0.0781206
        2000        10000       666667      -666667     0.225295
        2000        30000       666667      -666667     0.550112
        2000        50000       666667      -666667     0.727323
        2000        70000       666667      -666667     0.541034
        2000        90000       666667      -666667    0.0521735
